;; ===================== PROJECTED CANON (QE) =====================
;; Each clause below is entailed by Proj = ∃W.F over the canonical vocabulary.
;; Units appear first for clarity; OR-clauses (SAT-filtered) follow.
;; ==================================================================

;; Unit Bool constraints (entailed)
(assert (not patient_is_lactating_now))
(assert (not patient_is_pregnant_now))
(assert (not patient_has_finding_of_allergic_disposition_inthehistory))
(assert (not patient_has_finding_of_hypersensitivity_condition_inthehistory))
(assert (not patient_has_finding_of_terminal_illness_now))
(assert (not patient_has_diagnosis_of_disease_of_liver_inthehistory))
(assert (not patient_has_diagnosis_of_kidney_disease_inthehistory))
